%mem=1000mb
%chk=LiuKun1.chk
#p sto-3g scf=maxcycle=200  hf freq=noraman IOP(7/33=1)

T1

0 1
H
N                  1            B1
C                  2            B2    1            A1
O                  3            B3    2            A2    1            D1    0

B1     =     0.977800014943814
B2     =     1.35852547864786
B3     =     1.23735847697767
A1     =     108.85065453266
A2     =     133.704722787254
D1     =     180.000358667767



