%mem=1000mb
%chk=LiuKun2.chk
#p sto-3g scf=maxcycle=200  hf freq=noraman IOP(7/33=1)

T1

0 3
H
N                  1            B1
C                  2            B2    1            A1
O                  3            B3    2            A2    1            D1    0

B1     =     1.05045728378554
B2     =     1.36262010980759
B3     =     1.2345679018346
A1     =     107.699775766067
A2     =     134.136642825287
D1     =     180.000002699875



